
  32    4
  10   10   10   10

   0   0   0   0   0   6 2 3 6 7 8 10 
  10  10  10  10  10   6 20 19 15 11 5 4 
   2  10  10  10  10   6 31 20 19 13 12 9 
   9  10  10  10  10   5 31 18 17 16 13 
   9  10  10  10  10   3 31 18 9 
   4  10  10  10  10   4 25 23 17 11 
   8  10  10  10  10   3 25 23 11 
   3  10  10  10  10   1 9 
   8  10  10  10  10   3 23 21 14 
   3  10  10  10  10   6 30 29 28 27 23 22 
   6  10  10  10  10   4 28 22 21 18 
   9  10  10  10  10   2 18 16 
  10  10  10  10  10   5 30 29 27 23 22 
   2  10  10  10  10   5 30 29 27 26 25 
   6  10  10  10  10   3 31 25 22 
  10  10  10  10  10   4 30 28 27 23 
   3  10  10  10  10   3 29 27 26 
   8  10  10  10  10   2 27 24 
   3  10  10  10  10   2 27 23 
   3  10  10  10  10   2 24 23 
   8  10  10  10  10   2 29 26 
   6  10  10  10  10   1 24 
   2  10  10  10  10   1 26 
  10  10  10  10  10   1 26 
   1  10  10  10  10   1 28 
   9  10  10  10  10   1 32
   4  10  10  10  10   1 32
   6  10  10  10  10   1 32
   4  10  10  10  10   1 32
   5  10  10  10  10   1 32
   7  10  10  10  10   1 32
   0   0   0   0   0   0 
